% File represents an instance of a Composite Structure problem to be solved by a CP framework
% Created on 2025-03-26 10:42:06.024
T = 54;
n = 36;
m = 60;
edges = [(1, 2),
(7, 8),
(14, 13),
(20, 19),
(26, 25),
(31, 32),
(2, 3),
(8, 9),
(14, 15),
(20, 21),
(26, 27),
(32, 33),
(4, 3),
(10, 9),
(15, 16),
(21, 22),
(27, 28),
(33, 34),
(5, 4),
(11, 10),
(17, 16),
(23, 22),
(28, 29),
(34, 35),
(6, 5),
(12, 11),
(18, 17),
(23, 24),
(29, 30),
(35, 36),
(1, 7),
(7, 13),
(19, 13),
(25, 19),
(31, 25),
(2, 8),
(14, 8),
(20, 14),
(26, 20),
(26, 32),
(3, 9),
(15, 9),
(21, 15),
(27, 21),
(27, 33),
(4, 10),
(10, 16),
(22, 16),
(28, 22),
(28, 34),
(5, 11),
(11, 17),
(23, 17),
(23, 29),
(29, 35),
(6, 12),
(12, 18),
(18, 24),
(24, 30),
(30, 36)];
counts = [|12, 16, 12, 4,
|12, 12, 12, 4,
|12, 12, 12, 2,
|14, 14, 14, 2,
|14, 18, 14, 4,
|14, 18, 14, 8,
|12, 14, 12, 4,
|12, 10, 12, 4,
|12, 10, 12, 2,
|14, 12, 14, 2,
|14, 18, 14, 2,
|14, 18, 14, 6,
|12, 14, 12, 2,
|12, 14, 12, 4,
|12, 14, 12, 2,
|12, 10, 12, 2,
|12, 16, 12, 2,
|14, 16, 14, 2,
|12, 16, 12, 4,
|12, 18, 12, 4,
|12, 14, 12, 4,
|12, 12, 12, 4,
|12, 18, 12, 4,
|12, 14, 12, 2,
|12, 16, 12, 6,
|12, 18, 12, 6,
|12, 14, 12, 6,
|12, 12, 12, 6,
|12, 12, 12, 4,
|12, 8, 12, 2,
|14, 16, 14, 6,
|12, 14, 12, 6,
|12, 12, 12, 6,
|10, 12, 10, 6,
|10, 10, 10, 4,
|10, 8, 10, 2|];
